p cnf 75 170
-2 -3 0
1 3 0
-3 0
1 -2 0
-1 2 0
-5 -6 0
4 6 0
6 0
-8 -9 0
7 9 0
-9 0
7 -8 0
-8 -23 0
22 -8 0
-7 8 23 0
-11 -12 0
10 12 0
12 0
-14 -15 0
13 15 0
15 0
-17 -18 0
16 18 0
18 0
-20 -21 0
19 21 0
-21 0
19 -20 0
-20 -23 0
22 -20 0
-20 -35 0
34 -20 0
-19 20 23 35 0
-23 -24 0
22 24 0
-24 0
22 -23 0
-23 -8 0
7 -23 0
-23 -20 0
19 -23 0
-22 23 8 20 0
-26 -27 0
25 27 0
27 0
-29 -30 0
28 30 0
30 0
-32 -33 0
31 33 0
33 0
-35 -36 0
34 36 0
-36 0
34 -35 0
-35 -20 0
19 -35 0
-34 35 20 0
-38 -39 0
37 39 0
39 0
-41 -42 0
40 42 0
-42 0
40 -41 0
-41 -44 0
43 -41 0
-41 -56 0
55 -41 0
-41 -71 0
70 -41 0
-40 41 44 56 71 0
-44 -45 0
43 45 0
-45 0
43 -44 0
-44 -41 0
40 -44 0
-44 -59 0
58 -44 0
-44 -74 0
73 -44 0
-43 44 41 59 74 0
-47 -48 0
46 48 0
-48 0
46 -47 0
-47 -62 0
61 -47 0
-46 47 62 0
-50 -51 0
49 51 0
51 0
-53 -54 0
52 54 0
-54 0
52 -53 0
-53 -56 0
55 -53 0
-53 -59 0
58 -53 0
-52 53 56 59 0
-56 -57 0
55 57 0
-57 0
55 -56 0
-56 -41 0
40 -56 0
-56 -53 0
52 -56 0
-56 -59 0
58 -56 0
-56 -71 0
70 -56 0
-55 56 41 53 59 71 0
-59 -60 0
58 60 0
-60 0
58 -59 0
-59 -44 0
43 -59 0
-59 -56 0
55 -59 0
-59 -53 0
52 -59 0
-59 -74 0
73 -59 0
-58 59 44 56 53 74 0
-62 -63 0
61 63 0
-63 0
61 -62 0
-62 -47 0
46 -62 0
-62 -65 0
64 -62 0
-61 62 47 65 0
-65 -66 0
64 66 0
-66 0
64 -65 0
-65 -62 0
61 -65 0
-64 65 62 0
-68 -69 0
67 69 0
69 0
-71 -72 0
70 72 0
-72 0
70 -71 0
-71 -56 0
55 -71 0
-71 -41 0
40 -71 0
-71 -74 0
73 -71 0
-70 71 56 41 74 0
-74 -75 0
73 75 0
-75 0
73 -74 0
-74 -59 0
58 -74 0
-74 -44 0
43 -74 0
-74 -71 0
70 -74 0
-73 74 59 44 71 0


-1 -2 3 4 5 -6 -7 -8 9 10 11 -12 13 14 -15 16 17 -18 -19 20 21 -22 23 24 25 26 -27 28 29 -30 31 32 -33 -34 -35 36 37 38 -39 -40 41 42 -43 -44 45 -46 -47 48 49 50 -51 -52 -53 54 -55 56 57 -58 59 60 -61 62 63 -64 -65 66 67 68 -69 -70 -71 72 -73 74 75 0 
